Route #1: 45 47 3 42 54 9 30 18
Route #2: 40 6 32 57 43 29 61
Route #3: 16 37 22 44 2 19 38
Route #4: 53 12 14 5 60 25 11 49 1 46
Route #5: 36 52 48 56 20
Route #6: 7 50 17 58 33 26 55 59
Route #7: 28 34 31 35 4 21 41 23 27 39 24 13
Route #8: 51 8 10 15
Cost 1352.8113271760085